2	20	1	8	29	100	0	0	0	0	0	0
1400	1	0	0	0	0	0	0	0	0	0	0
1400	1	0	0	0	0	0	0	0	0	0	0
175	1	0	118.31	2.28	1	0	0	0	0	0	0
175	1	0	118.31	2.28	1	0	0	0	0	0	0
175	1	0	118.31	2.28	1	0	0	0	0	0	0
175	1	0	118.31	2.28	1	0	0	0	0	0	0
175	1	0	118.31	2.28	1	0	0	0	0	0	0
175	1	0	118.31	2.28	1	0	0	0	0	0	0
175	1	0	118.31	2.28	1	0	0	0	0	0	0
175	1	0	118.31	2.28	1	0	0	0	0	0	0
175	1	0	118.31	2.28	1	0	0	0	0	0	0
175	1	0	118.31	2.28	1	0	0	0	0	0	0
175	1	0	118.31	2.28	1	0	0	0	0	0	0
175	1	0	118.31	2.28	1	0	0	0	0	0	0
175	1	0	118.31	2.28	1	0	0	0	0	0	0
175	1	0	118.31	2.28	1	0	0	0	0	0	0
175	1	0	118.31	2.28	1	0	0	0	0	0	0
175	1	0	118.31	2.28	1	0	0	0	0	0	0
175	1	0	118.31	2.28	1	0	0	0	0	0	0
175	1	0	118.31	2.28	1	0	0	0	0	0	0
175	1	0	118.31	2.28	1	0	0	0	0	0	0
175	1	0	118.31	2.28	1	0	0	0	0	0	0
50	150	0	0	0	0	3390	0	0	99999	0	0
25	25	0	0	0	0	3390	0	0	99999	0	0
50	25	0	0	0	0	3390	0	0	99999	0	0
75	25	0	0	0	0	3390	0	0	99999	0	0
25	50	0	0	0	0	3390	0	0	99999	0	0
75	50	0	0	0	0	3390	0	0	99999	0	0
25	75	0	0	0	0	3390	0	0	99999	0	0
50	75	0	0	0	0	3390	0	0	99999	0	0
75	75	0	0	0	0	3390	0	0	99999	0	0
25	25	0	0	0	0	3390	0	0	0	0	0
50	25	0	0	0	0	3390	0	0	0	0	0
75	25	0	0	0	0	3390	0	0	0	0	0
25	50	0	0	0	0	3390	0	0	0	0	0
75	50	0	0	0	0	3390	0	0	0	0	0
25	75	0	0	0	0	3390	0	0	0	0	0
50	75	0	0	0	0	3390	0	0	0	0	0
75	75	0	0	0	0	3390	0	0	0	0	0
40      50      0       0       0       0       1236    0       0       0       0       0
73      52      0       0       0       0       1236    0       0       0       0       0
90      55      0       0       0       0       1236    0       0       0       0       0
55      79      0       0       0       0       1236    0       0       0       0       0
69      89      0       0       0       0       1236    0       0       0       0       0
32      80      0       0       0       0       1236    0       0       0       0       0
39      96      0       0       0       0       1236    0       0       0       0       0
23      80      0       0       0       0       1236    0       0       0       0       0
4	83	0	0	0	0	3390	0	0	0	0	0
18	58	0	0	0	0	3390	0	0	0	0	0
1	56	0	0	0	0	3390	0	0	0	0	0
13	31	0	0	0	0	3390	0	0	0	0	0
-5	38	0	0	0	0	3390	0	0	0	0	0
26	37	0	0	0	0	3390	0	0	0	0	0
28	13	0	0	0	0	3390	0	0	0	0	0
39	31	0	0	0	0	3390	0	0	0	0	0
48	11	0	0	0	0	3390	0	0	0	0	0
59	17	0	0	0	0	3390	0	0	0	0	0
73	23	0	0	0	0	3390	0	0	0	0	0
74	32	0	0	0	0	3390	0	0	0	0	0
90	44	0	0	0	0	3390	0	0	0	0	0
52	75	10	7	3	1087	1247	90	0	0	0	0
45	70	30	19	11	1185	1345	90	0	0	0	0
62	69	10	9	1	231	391	90	0	0	0	0
60	66	10	9	1	137	297	90	0	0	0	0
42	65	10	6	4	1373	1533	90	0	0	0	0
16	42	20	8	12	2645	2805	90	0	0	0	0
58	70	20	17	3	325	485	90	0	0	0	0
34	60	20	11	9	113	273	90	0	0	0	0
28	70	10	4	6	319	479	90	0	0	0	0
35	66	10	5	5	129	289	90	0	0	0	0
35	69	10	5	5	222	382	90	0	0	0	0
25	85	20	6	14	609	769	90	0	0	0	0
22	75	30	9	21	417	577	90	0	0	0	0
22	85	10	3	7	702	862	90	0	0	0	0
20	80	40	10	30	512	672	90	0	0	0	0
20	85	40	9	31	794	954	90	0	0	0	0
18	75	20	5	15	1079	1239	90	0	0	0	0
15	75	20	4	16	986	1146	90	0	0	0	0
15	80	10	2	8	891	1051	90	0	0	0	0
30	50	10	6	4	3121	3281	90	0	0	0	0
30	56	20	11	9	3229	3389	90	0	0	0	0
28	52	20	11	9	3213	3373	90	0	0	0	0
14	66	10	2	8	1277	1437	90	0	0	0	0
25	50	10	5	5	3026	3186	90	0	0	0	0
22	66	40	13	27	1179	1339	90	0	0	0	0
8	62	10	1	9	1375	1535	90	0	0	0	0
23	52	10	4	6	2933	3093	90	0	0	0	0
4	55	20	1	19	1694	1854	90	0	0	0	0
20	50	10	4	6	2743	2903	90	0	0	0	0
20	55	10	4	6	2838	2998	90	0	0	0	0
10	35	20	6	14	2361	2521	90	0	0	0	0
10	40	30	8	22	2548	2708	90	0	0	0	0
8	40	40	8	32	2456	2616	90	0	0	0	0
8	45	20	4	16	1795	1955	90	0	0	0	0
5	35	10	1	9	2266	2426	90	0	0	0	0
5	45	10	1	9	1888	2048	90	0	0	0	0
2	40	20	1	19	2170	2330	90	0	0	0	0
0	40	30	0	30	2078	2238	90	0	0	0	0
0	45	20	0	20	1983	2143	90	0	0	0	0
36	18	10	5	5	1069	1229	90	0	0	0	0
35	32	10	9	1	221	381	90	0	0	0	0
33	32	20	19	1	313	473	90	0	0	0	0
33	35	10	9	1	128	288	90	0	0	0	0
32	20	10	6	4	975	1135	90	0	0	0	0
30	30	10	10	0	783	943	90	0	0	0	0
34	25	30	22	8	879	1039	90	0	0	0	0
30	35	10	9	1	408	568	90	0	0	0	0
36	40	10	9	1	112	272	90	0	0	0	0
48	20	10	4	6	2060	2220	90	0	0	0	0
26	32	10	8	2	596	756	90	0	0	0	0
25	30	10	8	2	688	848	90	0	0	0	0
25	35	10	7	3	503	663	90	0	0	0	0
44	5	20	2	18	1772	1932	90	0	0	0	0
42	10	40	10	30	1867	2027	90	0	0	0	0
42	15	10	4	6	1962	2122	90	0	0	0	0
40	5	30	4	26	1678	1838	90	0	0	0	0
38	15	40	16	24	1302	1462	90	0	0	0	0
38	5	30	4	26	1586	1746	90	0	0	0	0
38	10	10	3	7	1397	1557	90	0	0	0	0
35	5	20	3	17	1493	1653	90	0	0	0	0
50	30	10	6	4	2440	2600	90	0	0	0	0
50	35	20	14	6	2721	2881	90	0	0	0	0
50	40	50	40	10	2011	2171	90	0	0	0	0
48	30	10	6	4	2348	2508	90	0	0	0	0
44	25	10	6	4	2157	2317	90	0	0	0	0
47	35	10	7	3	2814	2974	90	0	0	0	0
47	40	10	9	1	2104	2264	90	0	0	0	0
42	30	10	7	3	2252	2412	90	0	0	0	0
45	35	10	8	2	2906	3066	90	0	0	0	0
95	30	30	9	21	1136	1296	90	0	0	0	0
95	35	20	7	13	1041	1201	90	0	0	0	0
53	30	10	6	4	2533	2693	90	0	0	0	0
92	30	10	3	7	1229	1389	90	0	0	0	0
53	35	50	33	17	2628	2788	90	0	0	0	0
45	65	20	14	6	1280	1440	90	0	0	0	0
90	35	10	4	6	946	1106	90	0	0	0	0
72	45	10	6	4	1715	1875	90	0	0	0	0
78	40	20	10	10	1617	1777	90	0	0	0	0
87	30	10	3	7	1423	1583	90	0	0	0	0
85	25	10	3	7	1328	1488	90	0	0	0	0
85	35	30	12	18	1518	1678	90	0	0	0	0
75	55	20	15	5	609	769	90	0	0	0	0
72	55	10	8	2	516	676	90	0	0	0	0
70	58	20	17	3	422	582	90	0	0	0	0
86	46	30	16	14	844	1004	90	0	0	0	0
66	55	10	8	2	327	487	90	0	0	0	0
64	46	20	14	6	1813	1973	90	0	0	0	0
65	60	30	28	2	232	392	90	0	0	0	0
56	64	10	9	1	123	283	90	0	0	0	0
60	55	10	9	1	122	282	90	0	0	0	0
60	60	10	10	0	137	297	90	0	0	0	0
67	85	20	16	4	704	864	90	0	0	0	0
42	58	40	29	11	1470	1630	90	0	0	0	0
65	82	10	8	2	610	770	90	0	0	0	0
62	80	30	23	7	517	677	90	0	0	0	0
62	40	10	6	4	1909	2069	90	0	0	0	0
60	85	30	21	9	801	961	90	0	0	0	0
58	75	20	15	5	420	580	90	0	0	0	0
55	80	10	7	3	991	1151	90	0	0	0	0
55	85	20	13	7	896	1056	90	0	0	0	0
